EVRP-TW-SPD dataset generation/evrptwspd_instances/small_instances/Cplex15er/r105C15.txt
StringID	Type	x	y	Delivery	Pickup	ReadyTime	DueDate	ServiceTime
D0	d	35.0	35.0	0.0	0.0	0.0	230.0	0.0
S0	f	35.0	35.0	0.0	0.0	0.0	230.0	0.0
S1	f	64.0	37.0	0.0	0.0	0.0	230.0	0.0
S3	f	48.0	60.0	0.0	0.0	0.0	230.0	0.0
S13	f	21.0	22.0	0.0	0.0	0.0	230.0	0.0
S17	f	51.0	7.0	0.0	0.0	0.0	230.0	0.0
S19	f	64.0	19.0	0.0	0.0	0.0	230.0	0.0
C23	c	55.0	5.0	2.6363636363636362	26.363636363636363	87.0	117.0	10.0
C57	c	32.0	12.0	2.625	4.375	166.0	196.0	10.0
C50	c	47.0	47.0	13.0	0.0	108.0	138.0	10.0
C69	c	37.0	47.0	4.723404255319149	1.2765957446808507	141.0	171.0	10.0
C85	c	16.0	22.0	29.81818181818182	11.18181818181818	83.0	113.0	10.0
C25	c	65.0	20.0	1.8461538461538463	4.153846153846153	156.0	186.0	10.0
C56	c	53.0	12.0	1.358490566037736	4.6415094339622645	48.0	78.0	10.0
C5	c	15.0	30.0	13.0	13.0	153.0	183.0	10.0
C70	c	37.0	56.0	3.3035714285714284	1.6964285714285716	39.0	69.0	10.0
C28	c	41.0	37.0	14.439024390243903	1.5609756097560972	183.0	213.0	10.0
C29	c	64.0	42.0	5.90625	3.09375	107.0	137.0	10.0
C8	c	10.0	43.0	2.0930232558139537	6.906976744186046	27.0	57.0	10.0
C9	c	55.0	60.0	14.666666666666666	1.333333333333334	72.0	102.0	10.0
C95	c	25.0	24.0	19.2	0.8000000000000007	130.0	160.0	10.0
C17	c	5.0	30.0	0.3333333333333333	1.6666666666666667	77.0	107.0	10.0

Q Vehicle fuel tank capacity /60.63/
C Vehicle load capacity /200.0/
r fuel consumption rate /1.0/
g inverse refueling rate /0.49/
v average Velocity /1.0/
